Solver command line: ['C:\\Program Files\\IBM\\ILOG\\CPLEX_Studio2211\\cplex\\bin\\x64_win64\\cplex.exe']


Welcome to IBM(R) ILOG(R) CPLEX(R) Interactive Optimizer 22.1.1.0
  with Simplex, Mixed Integer & Barrier Optimizers
5725-A06 5725-A29 5724-Y48 5724-Y49 5724-Y54 5724-Y55 5655-Y21
Copyright IBM Corp. 1988, 2022.  All Rights Reserved.

Type 'help' for a list of available commands.
Type 'help' followed by a command name for more
information on commands.

CPLEX> Logfile 'cplex.log' closed.
Logfile 'C:\Users\wangy\Documents\GitHub\re_optimization\result_site_specific\tmp3c55nwro.cplex.log' open.
CPLEX> Problem 'C:\Users\wangy\Documents\GitHub\re_optimization\result_site_specific\tmp0_h965mv.pyomo.lp' read.
Read time = 0.31 sec. (9.13 ticks)
CPLEX> Problem name         : C:\Users\wangy\Documents\GitHub\re_optimization\result_site_specific\tmp0_h965mv.pyomo.lp
Objective sense      : Minimize
Variables            :   65769  [Nneg: 35068,  Free: 8792,  Binary: 9,
                                 Other: 21900]
Objective nonzeros   :      17
Linear constraints   :   87665  [Less: 46741,  Greater: 5,  Equal: 40919]
  Nonzeros           :  225089
  RHS nonzeros       :    3689

Variables            : Min LB: 0.000000         Max UB: 1.000000       
Objective nonzeros   : Min   : 1.000000         Max   : 1.000000       
Linear constraints   :
  Nonzeros           : Min   : 0.0009191307     Max   : 100000.0       
  RHS nonzeros       : Min   : 0.2040000        Max   : 100000.0       
CPLEX> Version identifier: 22.1.1.0 | 2022-11-27 | 9160aff4d
Tried aggregator 3 times.
MIP Presolve eliminated 52970 rows and 32528 columns.
Aggregator did 10314 substitutions.
Reduced MIP has 24381 rows, 22927 columns, and 73000 nonzeros.
Reduced MIP has 5 binaries, 0 generals, 0 SOSs, and 0 indicators.
Presolve time = 0.25 sec. (225.56 ticks)
Found incumbent of value 321690.885582 after 0.34 sec. (320.50 ticks)
Probing time = 0.02 sec. (1.28 ticks)
Tried aggregator 1 time.
Detecting symmetries...
Reduced MIP has 24381 rows, 22927 columns, and 73000 nonzeros.
Reduced MIP has 5 binaries, 0 generals, 0 SOSs, and 0 indicators.
Presolve time = 0.06 sec. (46.62 ticks)
Probing time = 0.00 sec. (1.18 ticks)
MIP emphasis: balance optimality and feasibility.
MIP search method: dynamic search.
Parallel mode: deterministic, using up to 16 threads.
Root relaxation solution time = 1.92 sec. (869.02 ticks)

        Nodes                                         Cuts/
   Node  Left     Objective  IInf  Best Integer    Best Bound    ItCnt     Gap

*     0+    0                       321690.8856   -13471.9487           104.19%
      0     0    11693.6765     1   321690.8856    11693.6765       66   96.36%
*     0+    0                        13298.2894    11693.6765            12.07%
*     0+    0                        12448.5685    11693.6765             6.06%
      0     0        cutoff          12448.5685                    703    0.00%
Elapsed time = 2.78 sec. (1730.83 ticks, tree = 0.01 MB, solutions = 3)

Root node processing (before b&c):
  Real time             =    2.80 sec. (1734.01 ticks)
Parallel b&c, 16 threads:
  Real time             =    0.00 sec. (0.00 ticks)
  Sync time (average)   =    0.00 sec.
  Wait time (average)   =    0.00 sec.
                          ------------
Total (root+branch&cut) =    2.80 sec. (1734.01 ticks)

Solution pool: 3 solutions saved.

MIP - Integer optimal solution:  Objective =  1.2448568466e+04
Solution time =    2.81 sec.  Iterations = 703  Nodes = 0
Deterministic time = 1734.20 ticks  (616.71 ticks/sec)

CPLEX> Incumbent solution written to file 'C:\Users\wangy\Documents\GitHub\re_optimization\result_site_specific\tmpjqv2knj6.cplex.sol'.
CPLEX> 
